edata/random/150.tsp
NAME : 0Farmland
COMMENT :  150
TYPE : TSP
DIMENSION : 150
EDGE_WEIGHT_TYPE : ATT
NODE_COORD_SECTION
1 0.68 0.23
2 0.45 0.5
3 0.86 0.31
4 0.47 0.37
5 0.72 0.29
6 0.95 0.84
7 0.96 0.4
8 0.42 0.72
9 0.21 0.97
10 0.39 0.48
11 0.13 0.01
12 0.24 0.19
13 0.57 0.34
14 0.08 0.64
15 0.37 0.02
16 0.13 0.33
17 0.63 0.11
18 0.92 0.78
19 0.41 0.5
20 0.28 0.05
21 0.93 0.48
22 0.73 0.18
23 0.99 0.91
24 0.75 0.1
25 0.33 0.37
26 0.21 0.89
27 0.43 0.72
28 0.22 0.43
29 0.25 0.26
30 0.2 0.12
31 0.4 0.23
32 0.29 0.84
33 0.39 0.37
34 0.01 0.38
35 0.22 0.54
36 0.5 0.1
37 0.24 1.0
38 0.79 0.93
39 0.4 0.83
40 0.15 0.81
41 0.08 0.26
42 0.14 0.65
43 0.39 0.54
44 0.71 0.02
45 0.34 0.67
46 0.08 0.71
47 0.53 0.49
48 0.74 0.48
49 0.18 0.62
50 0.84 0.77
51 0.73 0.0
52 0.02 0.05
53 0.84 0.43
54 0.73 0.76
55 0.29 0.07
56 0.82 0.7
57 0.67 0.58
58 0.66 0.92
59 0.93 0.66
60 0.46 0.42
61 0.06 0.81
62 0.59 0.5
63 0.78 0.17
64 0.6 0.64
65 0.74 0.32
66 0.16 0.36
67 0.35 0.85
68 0.02 0.15
69 0.62 0.92
70 0.23 0.57
71 0.66 0.56
72 0.83 0.61
73 0.06 0.07
74 0.65 0.81
75 0.59 0.75
76 0.04 0.94
77 0.17 0.51
78 0.46 0.33
79 0.67 0.63
80 0.67 0.78
81 0.33 0.99
82 0.08 0.91
83 0.24 0.67
84 0.13 0.97
85 0.4 0.51
86 0.4 0.84
87 0.99 0.64
88 0.2 0.79
89 0.41 0.4
90 0.8 0.78
91 0.57 0.72
92 0.75 0.42
93 0.15 0.93
94 0.92 0.23
95 0.33 0.85
96 0.51 0.8
97 0.82 0.44
98 0.22 0.18
99 1.0 0.48
100 0.3 0.05
101 0.0 0.59
102 0.7 0.48
103 0.15 0.99
104 0.91 0.46
105 0.46 0.74
106 0.11 0.58
107 0.11 0.4
108 0.16 0.28
109 0.41 0.46
110 0.77 0.78
111 0.91 0.35
112 0.07 0.68
113 0.72 0.29
114 0.22 0.68
115 0.1 0.72
116 0.21 0.23
117 0.91 0.96
118 0.62 0.08
119 0.5 0.02
120 0.32 0.99
121 0.36 0.38
122 0.12 0.06
123 0.7 0.47
124 0.74 0.22
125 0.27 0.8
126 0.99 0.58
127 0.65 0.15
128 0.54 0.35
129 0.17 0.2
130 0.26 0.44
131 0.96 0.66
132 0.14 0.39
133 0.45 0.18
134 0.28 0.66
135 0.69 0.59
136 0.01 0.27
137 0.24 0.1
138 0.59 0.63
139 0.58 0.55
140 0.62 0.36
141 0.23 0.03
142 0.95 0.7
143 0.04 0.32
144 0.19 0.98
145 0.07 0.93
146 0.62 0.72
147 0.08 0.27
148 0.73 0.03
149 0.57 0.37
150 0.78 0.02
EOF
