edata/random/150.opt.tour
NAME : 150.opt.tour
TYPE : TOUR
DIMENSION : 150
TOUR_SECTION
0.79
0.05
0.22
0.39
0.80
0.71
0.65
0.93
0.47
0.19
0.58
0.81
0.52
0.23
0.62
0.97
0.83
0.71
0.45
0.90
0.57
0.81
0.59
0.77
0.73
0.86
0.67
0.29
0.09
0.29
0.21
0.76
0.91
0.39
0.22
0.25
0.74
0.52
0.42
0.75
0.09
0.64
0.71
0.05
0.11
0.81
0.75
0.99
0.14
0.47
0.57
0.33
0.25
0.36
0.42
0.85
0.25
0.22
0.39
0.98
0.34
0.78
0.79
0.70
0.50
0.26
0.42
0.35
0.57
0.13
0.55
0.97
0.84
0.97
0.09
0.81
0.52
0.26
0.36
0.58
0.29
0.61
0.53
0.88
0.76
0.21
0.02
0.57
0.36
0.27
0.37
0.80
0.63
0.16
0.30
0.40
0.46
0.82
0.71
0.27
0.20
1.00
0.32
0.24
0.48
0.05
0.79
0.15
0.28
0.94
0.40
0.24
0.37
0.39
0.81
0.53
0.31
0.90
0.34
0.99
0.33
0.12
0.78
0.48
0.82
0.20
0.52
0.17
0.93
0.96
0.22
0.76
0.57
0.80
0.35
0.25
0.31
0.63
0.21
0.98
0.43
0.51
0.51
0.04
0.38
0.70
0.36
0.35
0.71
0.24
-1
EOF
